T = 150;
V = 10;
Q = 15;
L = 8;
C = 9;
P = 10;
time = [|  0,  4,  4, 17, 30,  7, 17, 30, 30, 17,  7,  0, 30,  4,  0, 17,  8, 17,  0, 30, 18, 18, 18, 18, 18, 18, 18, 18, 18, 18, 18, 18, 18, 18, 18, 18, 18, 18, 18, 18,
        |  4,  0,  0, 14, 29, 10, 14, 29, 29, 14, 10,  4, 29,  0,  4, 14,  8, 14,  4, 29, 17, 17, 17, 17, 17, 17, 17, 17, 17, 17, 17, 17, 17, 17, 17, 17, 17, 17, 17, 17,
        |  4,  0,  0, 14, 29, 10, 14, 29, 29, 14, 10,  4, 29,  0,  4, 14,  8, 14,  4, 29, 17, 17, 17, 17, 17, 17, 17, 17, 17, 17, 17, 17, 17, 17, 17, 17, 17, 17, 17, 17,
        | 17, 14, 14,  0, 17, 21,  0, 17, 17,  0, 21, 17, 17, 14, 17,  0, 21,  0, 17, 17, 13, 13, 13, 13, 13, 13, 13, 13, 13, 13, 13, 13, 13, 13, 13, 13, 13, 13, 13, 13,
        | 30, 29, 29, 17,  0, 33, 17,  0,  0, 17, 33, 30,  0, 29, 30, 17, 37, 17, 30,  0, 16, 16, 16, 16, 16, 16, 16, 16, 16, 16, 16, 16, 16, 16, 16, 16, 16, 16, 16, 16,
        |  7, 10, 10, 21, 33,  0, 21, 33, 33, 21,  0,  7, 33, 10,  7, 21, 13, 21,  7, 33, 17, 17, 17, 17, 17, 17, 17, 17, 17, 17, 17, 17, 17, 17, 17, 17, 17, 17, 17, 17,
        | 17, 14, 14,  0, 17, 21,  0, 17, 17,  0, 21, 17, 17, 14, 17,  0, 21,  0, 17, 17, 13, 13, 13, 13, 13, 13, 13, 13, 13, 13, 13, 13, 13, 13, 13, 13, 13, 13, 13, 13,
        | 30, 29, 29, 17,  0, 33, 17,  0,  0, 17, 33, 30,  0, 29, 30, 17, 37, 17, 30,  0, 16, 16, 16, 16, 16, 16, 16, 16, 16, 16, 16, 16, 16, 16, 16, 16, 16, 16, 16, 16,
        | 30, 29, 29, 17,  0, 33, 17,  0,  0, 17, 33, 30,  0, 29, 30, 17, 37, 17, 30,  0, 16, 16, 16, 16, 16, 16, 16, 16, 16, 16, 16, 16, 16, 16, 16, 16, 16, 16, 16, 16,
        | 17, 14, 14,  0, 17, 21,  0, 17, 17,  0, 21, 17, 17, 14, 17,  0, 21,  0, 17, 17, 13, 13, 13, 13, 13, 13, 13, 13, 13, 13, 13, 13, 13, 13, 13, 13, 13, 13, 13, 13,
        |  7, 10, 10, 21, 33,  0, 21, 33, 33, 21,  0,  7, 33, 10,  7, 21, 13, 21,  7, 33, 17, 17, 17, 17, 17, 17, 17, 17, 17, 17, 17, 17, 17, 17, 17, 17, 17, 17, 17, 17,
        |  0,  4,  4, 17, 30,  7, 17, 30, 30, 17,  7,  0, 30,  4,  0, 17,  8, 17,  0, 30, 18, 18, 18, 18, 18, 18, 18, 18, 18, 18, 18, 18, 18, 18, 18, 18, 18, 18, 18, 18,
        | 30, 29, 29, 17,  0, 33, 17,  0,  0, 17, 33, 30,  0, 29, 30, 17, 37, 17, 30,  0, 16, 16, 16, 16, 16, 16, 16, 16, 16, 16, 16, 16, 16, 16, 16, 16, 16, 16, 16, 16,
        |  4,  0,  0, 14, 29, 10, 14, 29, 29, 14, 10,  4, 29,  0,  4, 14,  8, 14,  4, 29, 17, 17, 17, 17, 17, 17, 17, 17, 17, 17, 17, 17, 17, 17, 17, 17, 17, 17, 17, 17,
        |  0,  4,  4, 17, 30,  7, 17, 30, 30, 17,  7,  0, 30,  4,  0, 17,  8, 17,  0, 30, 18, 18, 18, 18, 18, 18, 18, 18, 18, 18, 18, 18, 18, 18, 18, 18, 18, 18, 18, 18,
        | 17, 14, 14,  0, 17, 21,  0, 17, 17,  0, 21, 17, 17, 14, 17,  0, 21,  0, 17, 17, 13, 13, 13, 13, 13, 13, 13, 13, 13, 13, 13, 13, 13, 13, 13, 13, 13, 13, 13, 13,
        |  8,  8,  8, 21, 37, 13, 21, 37, 37, 21, 13,  8, 37,  8,  8, 21,  0, 21,  8, 37, 25, 25, 25, 25, 25, 25, 25, 25, 25, 25, 25, 25, 25, 25, 25, 25, 25, 25, 25, 25,
        | 17, 14, 14,  0, 17, 21,  0, 17, 17,  0, 21, 17, 17, 14, 17,  0, 21,  0, 17, 17, 13, 13, 13, 13, 13, 13, 13, 13, 13, 13, 13, 13, 13, 13, 13, 13, 13, 13, 13, 13,
        |  0,  4,  4, 17, 30,  7, 17, 30, 30, 17,  7,  0, 30,  4,  0, 17,  8, 17,  0, 30, 18, 18, 18, 18, 18, 18, 18, 18, 18, 18, 18, 18, 18, 18, 18, 18, 18, 18, 18, 18,
        | 30, 29, 29, 17,  0, 33, 17,  0,  0, 17, 33, 30,  0, 29, 30, 17, 37, 17, 30,  0, 16, 16, 16, 16, 16, 16, 16, 16, 16, 16, 16, 16, 16, 16, 16, 16, 16, 16, 16, 16,
        | 18, 17, 17, 13, 16, 17, 13, 16, 16, 13, 17, 18, 16, 17, 18, 13, 25, 13, 18, 16,  0,  0,  0,  0,  0,  0,  0,  0,  0,  0,  0,  0,  0,  0,  0,  0,  0,  0,  0,  0,
        | 18, 17, 17, 13, 16, 17, 13, 16, 16, 13, 17, 18, 16, 17, 18, 13, 25, 13, 18, 16,  0,  0,  0,  0,  0,  0,  0,  0,  0,  0,  0,  0,  0,  0,  0,  0,  0,  0,  0,  0,
        | 18, 17, 17, 13, 16, 17, 13, 16, 16, 13, 17, 18, 16, 17, 18, 13, 25, 13, 18, 16,  0,  0,  0,  0,  0,  0,  0,  0,  0,  0,  0,  0,  0,  0,  0,  0,  0,  0,  0,  0,
        | 18, 17, 17, 13, 16, 17, 13, 16, 16, 13, 17, 18, 16, 17, 18, 13, 25, 13, 18, 16,  0,  0,  0,  0,  0,  0,  0,  0,  0,  0,  0,  0,  0,  0,  0,  0,  0,  0,  0,  0,
        | 18, 17, 17, 13, 16, 17, 13, 16, 16, 13, 17, 18, 16, 17, 18, 13, 25, 13, 18, 16,  0,  0,  0,  0,  0,  0,  0,  0,  0,  0,  0,  0,  0,  0,  0,  0,  0,  0,  0,  0,
        | 18, 17, 17, 13, 16, 17, 13, 16, 16, 13, 17, 18, 16, 17, 18, 13, 25, 13, 18, 16,  0,  0,  0,  0,  0,  0,  0,  0,  0,  0,  0,  0,  0,  0,  0,  0,  0,  0,  0,  0,
        | 18, 17, 17, 13, 16, 17, 13, 16, 16, 13, 17, 18, 16, 17, 18, 13, 25, 13, 18, 16,  0,  0,  0,  0,  0,  0,  0,  0,  0,  0,  0,  0,  0,  0,  0,  0,  0,  0,  0,  0,
        | 18, 17, 17, 13, 16, 17, 13, 16, 16, 13, 17, 18, 16, 17, 18, 13, 25, 13, 18, 16,  0,  0,  0,  0,  0,  0,  0,  0,  0,  0,  0,  0,  0,  0,  0,  0,  0,  0,  0,  0,
        | 18, 17, 17, 13, 16, 17, 13, 16, 16, 13, 17, 18, 16, 17, 18, 13, 25, 13, 18, 16,  0,  0,  0,  0,  0,  0,  0,  0,  0,  0,  0,  0,  0,  0,  0,  0,  0,  0,  0,  0,
        | 18, 17, 17, 13, 16, 17, 13, 16, 16, 13, 17, 18, 16, 17, 18, 13, 25, 13, 18, 16,  0,  0,  0,  0,  0,  0,  0,  0,  0,  0,  0,  0,  0,  0,  0,  0,  0,  0,  0,  0,
        | 18, 17, 17, 13, 16, 17, 13, 16, 16, 13, 17, 18, 16, 17, 18, 13, 25, 13, 18, 16,  0,  0,  0,  0,  0,  0,  0,  0,  0,  0,  0,  0,  0,  0,  0,  0,  0,  0,  0,  0,
        | 18, 17, 17, 13, 16, 17, 13, 16, 16, 13, 17, 18, 16, 17, 18, 13, 25, 13, 18, 16,  0,  0,  0,  0,  0,  0,  0,  0,  0,  0,  0,  0,  0,  0,  0,  0,  0,  0,  0,  0,
        | 18, 17, 17, 13, 16, 17, 13, 16, 16, 13, 17, 18, 16, 17, 18, 13, 25, 13, 18, 16,  0,  0,  0,  0,  0,  0,  0,  0,  0,  0,  0,  0,  0,  0,  0,  0,  0,  0,  0,  0,
        | 18, 17, 17, 13, 16, 17, 13, 16, 16, 13, 17, 18, 16, 17, 18, 13, 25, 13, 18, 16,  0,  0,  0,  0,  0,  0,  0,  0,  0,  0,  0,  0,  0,  0,  0,  0,  0,  0,  0,  0,
        | 18, 17, 17, 13, 16, 17, 13, 16, 16, 13, 17, 18, 16, 17, 18, 13, 25, 13, 18, 16,  0,  0,  0,  0,  0,  0,  0,  0,  0,  0,  0,  0,  0,  0,  0,  0,  0,  0,  0,  0,
        | 18, 17, 17, 13, 16, 17, 13, 16, 16, 13, 17, 18, 16, 17, 18, 13, 25, 13, 18, 16,  0,  0,  0,  0,  0,  0,  0,  0,  0,  0,  0,  0,  0,  0,  0,  0,  0,  0,  0,  0,
        | 18, 17, 17, 13, 16, 17, 13, 16, 16, 13, 17, 18, 16, 17, 18, 13, 25, 13, 18, 16,  0,  0,  0,  0,  0,  0,  0,  0,  0,  0,  0,  0,  0,  0,  0,  0,  0,  0,  0,  0,
        | 18, 17, 17, 13, 16, 17, 13, 16, 16, 13, 17, 18, 16, 17, 18, 13, 25, 13, 18, 16,  0,  0,  0,  0,  0,  0,  0,  0,  0,  0,  0,  0,  0,  0,  0,  0,  0,  0,  0,  0,
        | 18, 17, 17, 13, 16, 17, 13, 16, 16, 13, 17, 18, 16, 17, 18, 13, 25, 13, 18, 16,  0,  0,  0,  0,  0,  0,  0,  0,  0,  0,  0,  0,  0,  0,  0,  0,  0,  0,  0,  0,
        | 18, 17, 17, 13, 16, 17, 13, 16, 16, 13, 17, 18, 16, 17, 18, 13, 25, 13, 18, 16,  0,  0,  0,  0,  0,  0,  0,  0,  0,  0,  0,  0,  0,  0,  0,  0,  0,  0,  0,  0|];
l =     [  1,  3,  3,  6,  7,  5,  6,  7,  7,  6,  5,  1,  7,  3,  1,  6,  8,  6,  1,  7];
a =     [ 18, 24, 17, 13, 16, 17, 13, 22, 30, 37, 39, 41, 59, 40, 60, 50, 46, 55, 70, 67];
b =     [ 52, 46, 36, 29, 55, 37, 45, 60, 66, 54, 93, 89,109, 83,104,116,102,106,121,116];
s =     [ 14, 13, 13, 13, 14, 12, 12, 16, 10, 13, 14, 13, 13, 13, 14, 12, 12, 16, 10, 13];
q =     [  1,  3,  4,  4,  3,  4,  2,  1,  4,  2, -1, -3, -4, -4, -3, -4, -2, -1, -4, -2];
